70 













































7 110 
81 50 
98 64 
68 16 
89 42 
107 84 
32 80 
83 112 
58 
28 
113 5 
90 15 
87 
75 105 
53 29 
88 65 
76 25 
102 82 
67 66 
24 40 
36 111 
73 35 
20 71 
94 
38 
33 93 
77 23 
100 19 
17 55 
99 79 
109 101 
46 62 
63 114 
56 13 
21 97 
8 
4 54 
30 86 
45 49 
43 85 
34 103 
37 22 
44 12 
52 31 
74 
47 60 
2 
41 72 
11 0 
3 78 
39 9 
104 
1 
51 
27 
108 69 
48 
14 
59 91 
95 18 
57 
96 
26 
61 92 
106 

10 

6 
